ioscaa1@Bogdan:~$ nano ac347c21ca0759079c0be9a758e4e924.cnf
ioscaa1@Bogdan:~$ minisat ac347c21ca0759079c0be9a758e4e924.cnf ac347c21ca0759079c0be9a758e4e924.out
WARNING: for repeatability, setting FPU to use double precision
============================[ Problem Statistics ]=============================
|                                                                             |
|  Number of variables:          1189                                         |
|  Number of clauses:           24482                                         |
|  Parse time:                   0.01 s                                       |
|  Eliminated clauses:           0.00 Mb                                      |
|  Simplification time:          0.01 s                                       |
|                                                                             |
============================[ Search Statistics ]==============================
| Conflicts |          ORIGINAL         |          LEARNT          | Progress |
|           |    Vars  Clauses Literals |    Limit  Clauses Lit/Cl |          |
===============================================================================
|       100 |    1148    24318    71791 |     8916      100     48 |  0.000 % |
|       250 |    1148    24318    71791 |     9808      250     25 |  0.000 % |
|       475 |    1148    24318    71791 |    10789      475     17 |  0.000 % |
|       812 |    1148    24318    71791 |    11867      812     14 |  0.003 % |
|      1318 |    1148    24318    71791 |    13054     1318     12 |  0.003 % |
|      2077 |    1148    24318    71791 |    14360     2077     13 |  0.000 % |
|      3216 |    1148    24318    71791 |    15796     3216     13 |  0.000 % |
|      4924 |    1148    24318    71791 |    17375     4924     14 |  0.003 % |
|      7486 |    1148    24318    71791 |    19113     7486     15 |  0.003 % |
|     11330 |    1148    24318    71791 |    21024    11330     15 |  0.000 % |
|     17096 |    1148    24318    71791 |    23127    17096     15 |  0.003 % |
|     25745 |    1148    24318    71791 |    25440    13810     16 |  0.000 % |
|     38719 |    1148    24318    71791 |    27984    12959     15 |  0.000 % |
|     58180 |    1148    24318    71791 |    30782    15878     15 |  0.000 % |
|     87372 |    1148    24318    71791 |    33860    25964     15 |  0.000 % |
|    131161 |    1148    24318    71791 |    37246    25078     15 |  0.003 % |
|    196845 |    1148    24318    71791 |    40971    13832     16 |  0.000 % |
|    295371 |    1148    24318    71791 |    45068    24934     15 |  0.000 % |
|    443160 |    1148    24318    71791 |    49575    40342     15 |  0.000 % |
|    664843 |    1148    24318    71791 |    54533    42942     15 |  0.000 % |
|    997368 |    1148    24318    71791 |    59986    45202     17 |  0.000 % |
|   1496156 |    1148    24318    71791 |    65985    36558     13 |  0.000 % |
|   2244338 |    1148    24318    71791 |    72583    53463     35 |  0.003 % |
|   3366612 |    1148    24318    71791 |    79841    16110     14 |  0.000 % |
|   5050023 |    1148    24318    71791 |    87826    34289     16 |  0.000 % |
|   7575139 |    1148    24318    71791 |    96608    80109     34 |  0.000 % |
|  11362814 |    1148    24318    71791 |   106269    77542     44 |  0.000 % |
|  17044326 |    1148    24318    71791 |   116896    69496     17 |  0.003 % |
|  25566595 |    1148    24318    71791 |   128586    89901     20 |  0.003 % |
|  38349998 |    1148    24318    71791 |   141444   110467     18 |  0.000 % |
|  57525103 |    1148    24318    71791 |   155589   114452     54 |  0.000 % |
|  86287761 |    1148    24318    71791 |   171148    76560     15 |  0.003 % |
| 129431749 |    1148    24318    71791 |   188263    97139     21 |  0.000 % |
| 194147731 |    1148    24318    71791 |   207089    14176     17 |  0.000 % |
| 291221704 |    1148    24318    71791 |   227798   202236     17 |  0.000 % |
| 436832664 |    1148    24318    71791 |   250578   141341     17 |  0.000 % |
^C===============================================================================
restarts              : 524287
conflicts             : 494858275      (30780 /sec)
decisions             : 8355816503     (0.00 % random) (519721 /sec)
propagations          : 29455633936    (1832103 /sec)
conflict literals     : 13112951219    (13.75 % deleted)
Memory used           : 718.00 MB
CPU time              : 16077.5 s

INDETERMINATE